NAME: instance_159
TYPE: TSP
DIMENSION: 20
EDGE_WEIGHT_TYPE: EUC_2D
NODE_COORD_SECTION
0 13.97 19.33
1 0.03 2.49
2 8.77 95.47
3 54.99 32.63
4 35.94 87.38
5 22.97 97.37
6 97.92 19.66
7 49.14 27.94
8 65.60 35.46
9 62.94 36.99
10 15.01 77.79
11 99.62 97.62
12 56.07 38.02
13 38.84 72.53
14 24.95 45.49
15 11.48 61.24
16 69.75 19.36
17 97.55 65.34
18 89.77 71.61
19 20.78 7.50
EOF
